nNurses = 200;
nHours = 34;
minHours = 10;
maxHours = 15;
maxConsec = 8;
maxPresence = 32;
demand = [20, 23, 25, 23, 28, 27, 23, 19, 18, 22, 18, 16, 13, 17, 20, 21, 16, 21, 18, 18, 19, 18, 19, 22, 17, 15, 19, 15, 20, 25, 26, 25, 26, 27];
